12
0 1 2 3 1 3 4 5 6 7 7 0 8 3 0 8 4 0 6 8 3 4 6 4 1 1 0 9 0 8 8 7 9 5 10 5 2 9 8 0 4 3 9 11 7 5 3 8 2 8 2 5 3 3 9 7 10 10 5 10 2 9 8 7 7 2 2 3 4 10 1 9 10 1 0 9 7 10 11 0 5 10 0 10 9 2 8 6 10 10 11 2 1 7 8 8 1 5 7 3 
